NAME: random-75-29635
TYPE: TSP
COMMENT: size=75 seed=29635
DIMENSION: 152
EDGE_WEIGHT_TYPE: EUC_2D
NODE_COORD_SECTION
+0 445 109
-0 445 109
+1 714 984
-1 522 184
+2 995 962
-2 245 151
+3 45 142
-3 897 446
+4 462 399
-4 186 560
+5 721 571
-5 477 964
+6 428 550
-6 790 964
+7 944 712
-7 476 721
+8 401 863
-8 339 586
+9 709 463
-9 922 913
+10 5 21
-10 403 85
+11 346 437
-11 234 739
+12 783 44
-12 30 576
+13 818 978
-13 218 852
+14 941 966
-14 782 687
+15 47 613
-15 515 502
+16 2 869
-16 506 944
+17 138 760
-17 44 487
+18 708 495
-18 22 229
+19 410 212
-19 26 40
+20 821 85
-20 325 41
+21 985 393
-21 429 981
+22 539 426
-22 610 286
+23 581 200
-23 21 120
+24 496 109
-24 423 870
+25 954 293
-25 468 32
+26 910 150
-26 382 682
+27 504 556
-27 851 460
+28 630 266
-28 726 639
+29 272 677
-29 220 965
+30 788 56
-30 254 861
+31 813 35
-31 37 27
+32 890 600
-32 775 794
+33 685 443
-33 894 305
+34 902 436
-34 638 609
+35 561 174
-35 423 865
+36 580 539
-36 706 385
+37 988 191
-37 323 376
+38 427 972
-38 670 349
+39 30 147
-39 641 57
+40 537 317
-40 816 69
+41 650 203
-41 267 364
+42 944 217
-42 621 28
+43 548 148
-43 5 228
+44 397 24
-44 29 374
+45 849 54
-45 189 595
+46 628 909
-46 27 30
+47 41 83
-47 85 562
+48 301 509
-48 722 484
+49 799 88
-49 872 487
+50 141 902
-50 92 712
+51 551 794
-51 163 440
+52 760 52
-52 925 226
+53 995 328
-53 650 409
+54 417 509
-54 175 320
+55 446 154
-55 515 756
+56 171 382
-56 448 21
+57 349 27
-57 700 975
+58 697 965
-58 563 622
+59 56 126
-59 223 918
+60 219 868
-60 740 775
+61 318 374
-61 884 436
+62 567 730
-62 941 308
+63 134 657
-63 59 902
+64 330 489
-64 131 701
+65 889 99
-65 468 266
+66 188 526
-66 251 884
+67 901 341
-67 896 615
+68 209 794
-68 876 296
+69 246 877
-69 457 683
+70 804 875
-70 242 809
+71 936 11
-71 159 969
+72 960 938
-72 159 837
+73 936 918
-73 311 681
+74 61 47
-74 653 969
+75 104 729
-75 923 573
PRECEDENCE_SECTION
+0 -0
+1 -1
+2 -2
+3 -3
+4 -4
+5 -5
+6 -6
+7 -7
+8 -8
+9 -9
+10 -10
+11 -11
+12 -12
+13 -13
+14 -14
+15 -15
+16 -16
+17 -17
+18 -18
+19 -19
+20 -20
+21 -21
+22 -22
+23 -23
+24 -24
+25 -25
+26 -26
+27 -27
+28 -28
+29 -29
+30 -30
+31 -31
+32 -32
+33 -33
+34 -34
+35 -35
+36 -36
+37 -37
+38 -38
+39 -39
+40 -40
+41 -41
+42 -42
+43 -43
+44 -44
+45 -45
+46 -46
+47 -47
+48 -48
+49 -49
+50 -50
+51 -51
+52 -52
+53 -53
+54 -54
+55 -55
+56 -56
+57 -57
+58 -58
+59 -59
+60 -60
+61 -61
+62 -62
+63 -63
+64 -64
+65 -65
+66 -66
+67 -67
+68 -68
+69 -69
+70 -70
+71 -71
+72 -72
+73 -73
+74 -74
+75 -75
EOF
